3038
2
174, 107, 81, 151, 175, 147, 64, 7, 39, 145, 64, 117, 122, 129, 65, 18, 170, 71, 165, 174, 142, 54, 121, 56, 76, 175, 64, 165, 9, 104, 129, 121, 22, 162, 139, 33, 144, 99, 160
80, 77, 40, 30, 39, 71, 84, 63, 64, 56, 50, 37, 15, 36, 82, 27, 20, 91, 67, 74, 57, 49, 65, 19, 16, 33, 40, 53, 21, 22, 53, 32, 45, 45, 93, 99, 59, 56, 47
1, 1, 1, 2, 2, 2, 1, 1, 1, 1, 1, 1, 1, 1, 2, 1, 2, 1, 1, 1, 1, 2, 1, 1, 1, 1, 2, 2, 1, 2, 1, 2, 2, 2, 2, 2, 2, 2, 2